Welcome to sphere packing routines, relation testing division.
Welcome to Fake anchor 1a
Enter depth bound:  Enter slop:  Depth bound = 32
slop = 0.001
Starting time:  	Tue May 19 13:54:30 1998

Starting case 1:
2.569999999999999840	2.828427124746190290
2.000000000000000000	2.510000000000000230
2.000000000000000000	2.510000000000000230
cellcount    =       1091584057		maxdepth = 16
partialtries =        110160408
impossible   =                0		domaincut    =                0
acutecut     =                0		verifycount  =        955136050
partialcount =                0		diff         =        136448007
Verification succeeded.

Done.
Ending time:    	Thu May 21 03:59:05 1998

Elapsed time: 137075 seconds
diff = -783.316		7963.41 cells per second


